20J6M/DAT/20J6MULL-20.dat
20 6
10.7694 10.7694
43.1602 43.1602
47.5684 47.5684
7.1796 7.1796
15.6572 15.6572
9.3179 9.3179
34.148 34.148
38.2096 38.2096
46.3711 46.3711
18.9037 18.9037
8.6747 8.6747
40.9355 40.9355
2.2389 2.2389
7.9374 7.9374
17.9801 17.9801
16.3981 16.3981
0.6113 0.6113
3.6391 3.6391
16.1824 16.1824
20.8517 20.8517
67.7891