20J6M/SOL/20J6MULL-20.sol
solution status: optimal solution found
objective value:                             67.78905
x#1#4                                               1 	(obj:0)
x#2#5                               0.474095347102191 	(obj:0)
x#2#6                               0.525904652897809 	(obj:0)
x#3#4                                               1 	(obj:0)
x#4#4                                               1 	(obj:0)
x#5#1                                               1 	(obj:0)
x#6#2                                               1 	(obj:0)
x#7#2                                               1 	(obj:0)
x#8#3                               0.307103450441774 	(obj:0)
x#8#5                               0.692896549558226 	(obj:0)
x#9#4                              0.0276077125623504 	(obj:0)
x#9#6                                0.97239228743765 	(obj:0)
x#10#2                               0.82779826171596 	(obj:0)
x#10#3                               0.17220173828404 	(obj:0)
x#11#2                                              1 	(obj:0)
x#12#1                                              1 	(obj:0)
x#13#3                                              1 	(obj:0)
x#14#1                                              1 	(obj:0)
x#15#3                                              1 	(obj:0)
x#16#3                                              1 	(obj:0)
x#17#4                                              1 	(obj:0)
x#18#1                              0.895537358138001 	(obj:0)
x#18#4                              0.104462641861999 	(obj:0)
x#19#3                                              1 	(obj:0)
x#20#5                                              1 	(obj:0)
z                                            67.78905 	(obj:1)
